p cnf 35 51
-1 32 -11 0 
-2 14 32 -11 0 
-3 12 32 -11 0 
-4 -1 32 -11 0 
-5 -6 21 27 32 -11 0 
-7 -6 21 27 32 -11 0 
-6 21 27 -8 32 -11 0 
-9 -2 14 32 -11 0 
-7 -2 14 32 -11 0 
-7 -1 32 -11 0 
-10 26 33 -1 0 
-11 34 0 
-12 3 33 -1 0 
-5 -13 34 0 
-4 -14 2 33 -1 0 
-15 33 -1 0 
-16 34 0 
-14 2 33 -1 0 
-17 31 -16 34 0 
-4 34 0 
-18 34 0 
-19 -20 34 0 
-20 -16 34 0 
-7 -20 34 0 
-7 34 0 
-9 34 0 
-21 6 27 33 -1 0 
-22 28 32 -11 0 
-6 21 27 32 -11 0 
-23 32 -11 0 
-24 34 0 
-25 33 -1 0 
-5 -2 14 -26 10 32 -11 0 
-27 6 21 -16 -20 -28 22 35 -17 -31 0 
-29 -3 12 32 -11 0 
-20 -3 12 32 -11 0 
-5 34 0 
-7 -2 14 -18 32 -11 0 
-19 34 0 
-4 -30 34 0 
-11 -10 26 33 -1 0 
-7 -18 34 0 
-20 34 0 
-16 -9 34 0 
-3 12 -16 32 -11 0 
-31 17 34 0 
-7 -19 34 0 
-16 -21 6 27 33 -1 0 
-14 2 -21 6 27 33 -1 0 
-5 -12 3 33 -1 0 
-19 -16 34 0 
